(set-logic QF_NRA)
(set-info :source |Benchmarks generated from hycomp (https://es-static.fbk.eu/tools/hycomp/). BMC instances of non-linear hybrid automata taken from: Alessandro Cimatti, Sergio Mover, Stefano Tonetta, A quantifier-free SMT encoding of non-linear hybrid automata, FMCAD 2012 and Alessandro Cimatti, Sergio Mover, Stefano Tonetta, Quantier-free encoding of invariants for Hybrid Systems, Formal Methods in System Design. This instance solves a BMC problem of depth 1 and uses the quantifier free encoding with lemmas encoding. Contacts: Sergio Mover (mover@fbk.eu), Stefano Tonetta (tonettas@fbk.eu), Alessandro Cimatti (cimatti@fbk.eu).|)
(set-info :smt-lib-version 2.0)
(set-info :category "industrial")
(set-info :status unsat)
;; MathSAT API call trace
;; generated on Mon Mar 19 10:45:19 2012
(declare-fun b.delta__AT0 () Real)
(declare-fun b.EVENT.0__AT0 () Bool)
(declare-fun b.y__AT1 () Real)
(declare-fun b.counter.0__AT1 () Bool)
(declare-fun b.counter.1__AT1 () Bool)
(declare-fun b.counter.2__AT1 () Bool)
(declare-fun b.counter.3__AT1 () Bool)
(declare-fun speed_loss__AT0 () Real)
(declare-fun b.EVENT.0__AT1 () Bool)
(declare-fun b.EVENT.1__AT1 () Bool)
(declare-fun b.counter.3__AT0 () Bool)
(declare-fun b.x__AT0 () Real)
(declare-fun b.speed_y__AT0 () Real)
(declare-fun b.speed_x__AT0 () Real)
(declare-fun b.x__AT1 () Real)
(declare-fun b.EVENT.1__AT0 () Bool)
(declare-fun b.event_is_timed__AT1 () Bool)
(declare-fun b.time__AT0 () Real)
(declare-fun b.speed_x__AT1 () Real)
(declare-fun b.speed_y__AT1 () Real)
(declare-fun b.y__AT0 () Real)
(declare-fun b.counter.0__AT0 () Bool)
(declare-fun b.counter.1__AT0 () Bool)
(declare-fun g__AT0 () Real)
(declare-fun b.event_is_timed__AT0 () Bool)
(declare-fun b.counter.2__AT0 () Bool)
(declare-fun b.time__AT1 () Real)
(declare-fun b.delta__AT1 () Real)
(assert (let ((.def_71 (* (- 1.0) g__AT0)))
(let ((.def_72 (* (/ 1 2) .def_71)))
(let ((.def_79 (* 2.0 .def_72)))
(let ((.def_123 (* (- 1.0) .def_79)))
(let ((.def_348 (* .def_123 b.delta__AT1)))
(let ((.def_351 (<= .def_348 b.speed_y__AT1)))
(let ((.def_358 (not .def_351)))
(let ((.def_311 (<= 0.0 b.speed_y__AT1)))
(let ((.def_359 (or .def_311 .def_358)))
(let ((.def_349 (<= b.speed_y__AT1 .def_348)))
(let ((.def_325 (<= b.speed_y__AT1 0.0 )))
(let ((.def_326 (not .def_325)))
(let ((.def_357 (or .def_326 .def_349)))
(let ((.def_360 (and .def_357 .def_359)))
(let ((.def_114 (<= g__AT0 0.0 )))
(let ((.def_361 (or .def_114 .def_360)))
(let ((.def_353 (not .def_349)))
(let ((.def_354 (or .def_325 .def_353)))
(let ((.def_312 (not .def_311)))
(let ((.def_352 (or .def_312 .def_351)))
(let ((.def_355 (and .def_352 .def_354)))
(let ((.def_119 (<= 0.0 g__AT0)))
(let ((.def_356 (or .def_119 .def_355)))
(let ((.def_362 (and .def_356 .def_361)))
(let ((.def_350 (and .def_325 .def_349)))
(let ((.def_363 (and .def_350 .def_362)))
(let ((.def_307 (* .def_79 b.delta__AT1)))
(let ((.def_308 (+ b.speed_y__AT1 .def_307)))
(let ((.def_323 (<= .def_308 0.0 )))
(let ((.def_324 (not .def_323)))
(let ((.def_343 (or .def_324 .def_325)))
(let ((.def_309 (<= 0.0 .def_308)))
(let ((.def_342 (or .def_309 .def_312)))
(let ((.def_344 (and .def_342 .def_343)))
(let ((.def_345 (or .def_119 .def_344)))
(let ((.def_310 (not .def_309)))
(let ((.def_339 (or .def_310 .def_311)))
(let ((.def_338 (or .def_323 .def_326)))
(let ((.def_340 (and .def_338 .def_339)))
(let ((.def_341 (or .def_114 .def_340)))
(let ((.def_346 (and .def_341 .def_345)))
(let ((.def_337 (and .def_309 .def_311)))
(let ((.def_347 (and .def_337 .def_346)))
(let ((.def_364 (or .def_347 .def_363)))
(let ((.def_302 (* b.speed_y__AT1 b.delta__AT1)))
(let ((.def_300 (* b.delta__AT1 b.delta__AT1)))
(let ((.def_301 (* .def_72 .def_300)))
(let ((.def_303 (+ .def_301 .def_302)))
(let ((.def_304 (+ b.y__AT1 .def_303)))
(let ((.def_317 (<= .def_304 0.0 )))
(let ((.def_331 (not .def_317)))
(let ((.def_315 (<= b.y__AT1 0.0 )))
(let ((.def_332 (or .def_315 .def_331)))
(let ((.def_293 (<= 0.0 b.y__AT1)))
(let ((.def_329 (not .def_293)))
(let ((.def_305 (<= 0.0 .def_304)))
(let ((.def_330 (or .def_305 .def_329)))
(let ((.def_333 (and .def_330 .def_332)))
(let ((.def_327 (or .def_324 .def_326)))
(let ((.def_328 (not .def_327)))
(let ((.def_334 (or .def_328 .def_333)))
(let ((.def_319 (not .def_305)))
(let ((.def_320 (or .def_293 .def_319)))
(let ((.def_316 (not .def_315)))
(let ((.def_318 (or .def_316 .def_317)))
(let ((.def_321 (and .def_318 .def_320)))
(let ((.def_313 (or .def_310 .def_312)))
(let ((.def_314 (not .def_313)))
(let ((.def_322 (or .def_314 .def_321)))
(let ((.def_335 (and .def_322 .def_334)))
(let ((.def_306 (and .def_293 .def_305)))
(let ((.def_336 (and .def_306 .def_335)))
(let ((.def_365 (and .def_336 .def_364)))
(let ((.def_52 (<= g__AT0 10.0 )))
(let ((.def_51 (<= 8.0 g__AT0)))
(let ((.def_53 (and .def_51 .def_52)))
(let ((.def_366 (and .def_53 .def_365)))
(let ((.def_60 (<= speed_loss__AT0 (/ 1 2))))
(let ((.def_57 (<= (/ 1 10) speed_loss__AT0)))
(let ((.def_61 (and .def_57 .def_60)))
(let ((.def_367 (and .def_61 .def_366)))
(let ((.def_62 (and .def_53 .def_61)))
(let ((.def_294 (and .def_62 .def_293)))
(let ((.def_290 (not b.EVENT.0__AT1)))
(let ((.def_288 (not b.EVENT.1__AT1)))
(let ((.def_291 (or .def_288 .def_290)))
(let ((.def_6 (not b.counter.0__AT1)))
(let ((.def_4 (not b.counter.1__AT1)))
(let ((.def_281 (or .def_4 .def_6)))
(let ((.def_285 (or b.counter.3__AT1 .def_281)))
(let ((.def_282 (or b.counter.2__AT1 .def_281)))
(let ((.def_9 (not b.counter.2__AT1)))
(let ((.def_280 (or .def_6 .def_9)))
(let ((.def_283 (and .def_280 .def_282)))
(let ((.def_202 (not b.counter.3__AT1)))
(let ((.def_284 (or .def_202 .def_283)))
(let ((.def_286 (and .def_284 .def_285)))
(let ((.def_292 (and .def_286 .def_291)))
(let ((.def_295 (and .def_292 .def_294)))
(let ((.def_275 (<= 0.0 b.delta__AT0)))
(let ((.def_46 (not b.EVENT.0__AT0)))
(let ((.def_44 (not b.EVENT.1__AT0)))
(let ((.def_174 (and .def_44 .def_46)))
(let ((.def_175 (not .def_174)))
(let ((.def_276 (or .def_175 .def_275)))
(let ((.def_277 (or b.EVENT.1__AT0 .def_276)))
(let ((.def_224 (= b.counter.0__AT1 b.counter.0__AT0)))
(let ((.def_222 (= b.counter.1__AT1 b.counter.1__AT0)))
(let ((.def_220 (= b.counter.2__AT1 b.counter.2__AT0)))
(let ((.def_219 (= b.counter.3__AT0 b.counter.3__AT1)))
(let ((.def_221 (and .def_219 .def_220)))
(let ((.def_223 (and .def_221 .def_222)))
(let ((.def_225 (and .def_223 .def_224)))
(let ((.def_272 (or .def_175 .def_225)))
(let ((.def_273 (or b.EVENT.1__AT0 .def_272)))
(let ((.def_232 (= b.x__AT1 b.x__AT0)))
(let ((.def_229 (= b.y__AT0 b.y__AT1)))
(let ((.def_266 (and .def_229 .def_232)))
(let ((.def_156 (= b.speed_x__AT0 b.speed_x__AT1)))
(let ((.def_267 (and .def_156 .def_266)))
(let ((.def_218 (= b.speed_y__AT0 b.speed_y__AT1)))
(let ((.def_268 (and .def_218 .def_267)))
(let ((.def_263 (= b.delta__AT0 0.0 )))
(let ((.def_264 (and .def_174 .def_263)))
(let ((.def_265 (not .def_264)))
(let ((.def_269 (or .def_265 .def_268)))
(let ((.def_270 (or b.EVENT.1__AT0 .def_269)))
(let ((.def_243 (= b.time__AT0 b.time__AT1)))
(let ((.def_255 (and .def_232 .def_243)))
(let ((.def_256 (and .def_229 .def_255)))
(let ((.def_257 (and .def_156 .def_256)))
(let ((.def_258 (and .def_218 .def_257)))
(let ((.def_259 (and .def_225 .def_258)))
(let ((.def_260 (or .def_44 .def_259)))
(let ((.def_246 (* (- 1.0) b.time__AT1)))
(let ((.def_249 (+ b.delta__AT0 .def_246)))
(let ((.def_250 (+ b.time__AT0 .def_249)))
(let ((.def_251 (= .def_250 0.0 )))
(let ((.def_252 (or .def_175 .def_251)))
(let ((.def_253 (or b.EVENT.1__AT0 .def_252)))
(let ((.def_244 (or .def_174 .def_243)))
(let ((.def_245 (or b.EVENT.1__AT0 .def_244)))
(let ((.def_254 (and .def_245 .def_253)))
(let ((.def_261 (and .def_254 .def_260)))
(let ((.def_239 (= .def_175 b.event_is_timed__AT1)))
(let ((.def_237 (= b.event_is_timed__AT0 .def_174)))
(let ((.def_240 (and .def_237 .def_239)))
(let ((.def_226 (and .def_218 .def_225)))
(let ((.def_177 (= b.y__AT0 0.0 )))
(let ((.def_84 (<= 0.0 b.speed_y__AT0)))
(let ((.def_85 (not .def_84)))
(let ((.def_178 (and .def_85 .def_177)))
(let ((.def_227 (or .def_178 .def_226)))
(let ((.def_193 (or .def_6 b.counter.0__AT0)))
(let ((.def_27 (not b.counter.0__AT0)))
(let ((.def_192 (or b.counter.0__AT1 .def_27)))
(let ((.def_194 (and .def_192 .def_193)))
(let ((.def_195 (and .def_4 .def_194)))
(let ((.def_196 (or b.counter.1__AT0 .def_195)))
(let ((.def_25 (not b.counter.1__AT0)))
(let ((.def_191 (or b.counter.1__AT1 .def_25)))
(let ((.def_197 (and .def_191 .def_196)))
(let ((.def_210 (and .def_9 .def_197)))
(let ((.def_211 (or b.counter.2__AT0 .def_210)))
(let ((.def_205 (and .def_4 .def_27)))
(let ((.def_206 (or b.counter.1__AT0 .def_205)))
(let ((.def_207 (and .def_191 .def_206)))
(let ((.def_208 (and b.counter.2__AT1 .def_207)))
(let ((.def_30 (not b.counter.2__AT0)))
(let ((.def_209 (or .def_30 .def_208)))
(let ((.def_212 (and .def_209 .def_211)))
(let ((.def_213 (and b.counter.3__AT1 .def_212)))
(let ((.def_214 (or b.counter.3__AT0 .def_213)))
(let ((.def_198 (and b.counter.2__AT1 .def_197)))
(let ((.def_199 (or b.counter.2__AT0 .def_198)))
(let ((.def_187 (or b.counter.1__AT1 b.counter.1__AT0)))
(let ((.def_185 (and .def_4 b.counter.0__AT1)))
(let ((.def_186 (or .def_25 .def_185)))
(let ((.def_188 (and .def_186 .def_187)))
(let ((.def_189 (and .def_9 .def_188)))
(let ((.def_190 (or .def_30 .def_189)))
(let ((.def_200 (and .def_190 .def_199)))
(let ((.def_203 (and .def_200 .def_202)))
(let ((.def_33 (not b.counter.3__AT0)))
(let ((.def_204 (or .def_33 .def_203)))
(let ((.def_215 (and .def_204 .def_214)))
(let ((.def_182 (* (- 1.0) b.speed_y__AT0)))
(let ((.def_180 (* (- 1.0) speed_loss__AT0)))
(let ((.def_181 (+ 1.0 .def_180)))
(let ((.def_183 (* .def_181 .def_182)))
(let ((.def_184 (= b.speed_y__AT1 .def_183)))
(let ((.def_216 (and .def_184 .def_215)))
(let ((.def_179 (not .def_178)))
(let ((.def_217 (or .def_179 .def_216)))
(let ((.def_228 (and .def_217 .def_227)))
(let ((.def_230 (and .def_228 .def_229)))
(let ((.def_231 (and .def_156 .def_230)))
(let ((.def_233 (and .def_231 .def_232)))
(let ((.def_234 (or .def_174 .def_233)))
(let ((.def_235 (or b.EVENT.1__AT0 .def_234)))
(let ((.def_166 (* (- 1.0) b.y__AT1)))
(let ((.def_74 (* b.speed_y__AT0 b.delta__AT0)))
(let ((.def_169 (+ .def_74 .def_166)))
(let ((.def_69 (* b.delta__AT0 b.delta__AT0)))
(let ((.def_73 (* .def_69 .def_72)))
(let ((.def_170 (+ .def_73 .def_169)))
(let ((.def_171 (+ b.y__AT0 .def_170)))
(let ((.def_172 (= .def_171 0.0 )))
(let ((.def_160 (* (- 1.0) b.speed_y__AT1)))
(let ((.def_158 (* b.delta__AT0 .def_71)))
(let ((.def_161 (+ .def_158 .def_160)))
(let ((.def_162 (+ b.speed_y__AT0 .def_161)))
(let ((.def_163 (= .def_162 0.0 )))
(let ((.def_148 (* (- 1.0) b.x__AT1)))
(let ((.def_152 (+ .def_148 b.x__AT0)))
(let ((.def_146 (* b.delta__AT0 b.speed_x__AT0)))
(let ((.def_153 (+ .def_146 .def_152)))
(let ((.def_154 (= .def_153 0.0 )))
(let ((.def_157 (and .def_154 .def_156)))
(let ((.def_164 (and .def_157 .def_163)))
(let ((.def_173 (and .def_164 .def_172)))
(let ((.def_176 (or .def_173 .def_175)))
(let ((.def_236 (and .def_176 .def_235)))
(let ((.def_241 (and .def_236 .def_240)))
(let ((.def_262 (and .def_241 .def_261)))
(let ((.def_271 (and .def_262 .def_270)))
(let ((.def_274 (and .def_271 .def_273)))
(let ((.def_278 (and .def_274 .def_277)))
(let ((.def_279 (and .def_44 .def_278)))
(let ((.def_296 (and .def_279 .def_295)))
(let ((.def_28 (and .def_25 .def_27)))
(let ((.def_31 (and .def_28 .def_30)))
(let ((.def_297 (and .def_31 .def_296)))
(let ((.def_124 (* b.delta__AT0 .def_123)))
(let ((.def_127 (<= .def_124 b.speed_y__AT0)))
(let ((.def_134 (not .def_127)))
(let ((.def_135 (or .def_84 .def_134)))
(let ((.def_125 (<= b.speed_y__AT0 .def_124)))
(let ((.def_98 (<= b.speed_y__AT0 0.0 )))
(let ((.def_99 (not .def_98)))
(let ((.def_133 (or .def_99 .def_125)))
(let ((.def_136 (and .def_133 .def_135)))
(let ((.def_137 (or .def_114 .def_136)))
(let ((.def_129 (not .def_125)))
(let ((.def_130 (or .def_98 .def_129)))
(let ((.def_128 (or .def_85 .def_127)))
(let ((.def_131 (and .def_128 .def_130)))
(let ((.def_132 (or .def_119 .def_131)))
(let ((.def_138 (and .def_132 .def_137)))
(let ((.def_126 (and .def_98 .def_125)))
(let ((.def_139 (and .def_126 .def_138)))
(let ((.def_80 (* b.delta__AT0 .def_79)))
(let ((.def_81 (+ b.speed_y__AT0 .def_80)))
(let ((.def_96 (<= .def_81 0.0 )))
(let ((.def_97 (not .def_96)))
(let ((.def_117 (or .def_97 .def_98)))
(let ((.def_82 (<= 0.0 .def_81)))
(let ((.def_116 (or .def_82 .def_85)))
(let ((.def_118 (and .def_116 .def_117)))
(let ((.def_120 (or .def_118 .def_119)))
(let ((.def_83 (not .def_82)))
(let ((.def_112 (or .def_83 .def_84)))
(let ((.def_111 (or .def_96 .def_99)))
(let ((.def_113 (and .def_111 .def_112)))
(let ((.def_115 (or .def_113 .def_114)))
(let ((.def_121 (and .def_115 .def_120)))
(let ((.def_110 (and .def_82 .def_84)))
(let ((.def_122 (and .def_110 .def_121)))
(let ((.def_140 (or .def_122 .def_139)))
(let ((.def_75 (+ .def_73 .def_74)))
(let ((.def_76 (+ b.y__AT0 .def_75)))
(let ((.def_90 (<= .def_76 0.0 )))
(let ((.def_104 (not .def_90)))
(let ((.def_88 (<= b.y__AT0 0.0 )))
(let ((.def_105 (or .def_88 .def_104)))
(let ((.def_63 (<= 0.0 b.y__AT0)))
(let ((.def_102 (not .def_63)))
(let ((.def_77 (<= 0.0 .def_76)))
(let ((.def_103 (or .def_77 .def_102)))
(let ((.def_106 (and .def_103 .def_105)))
(let ((.def_100 (or .def_97 .def_99)))
(let ((.def_101 (not .def_100)))
(let ((.def_107 (or .def_101 .def_106)))
(let ((.def_92 (not .def_77)))
(let ((.def_93 (or .def_63 .def_92)))
(let ((.def_89 (not .def_88)))
(let ((.def_91 (or .def_89 .def_90)))
(let ((.def_94 (and .def_91 .def_93)))
(let ((.def_86 (or .def_83 .def_85)))
(let ((.def_87 (not .def_86)))
(let ((.def_95 (or .def_87 .def_94)))
(let ((.def_108 (and .def_95 .def_107)))
(let ((.def_78 (and .def_63 .def_77)))
(let ((.def_109 (and .def_78 .def_108)))
(let ((.def_141 (and .def_109 .def_140)))
(let ((.def_142 (and .def_53 .def_141)))
(let ((.def_143 (and .def_61 .def_142)))
(let ((.def_64 (and .def_62 .def_63)))
(let ((.def_47 (or .def_44 .def_46)))
(let ((.def_37 (or .def_25 .def_27)))
(let ((.def_41 (or b.counter.3__AT0 .def_37)))
(let ((.def_38 (or b.counter.2__AT0 .def_37)))
(let ((.def_36 (or .def_27 .def_30)))
(let ((.def_39 (and .def_36 .def_38)))
(let ((.def_40 (or .def_33 .def_39)))
(let ((.def_42 (and .def_40 .def_41)))
(let ((.def_48 (and .def_42 .def_47)))
(let ((.def_65 (and .def_48 .def_64)))
(let ((.def_34 (and .def_31 .def_33)))
(let ((.def_22 (= b.speed_y__AT0 0.0 )))
(let ((.def_19 (= b.y__AT0 10.0 )))
(let ((.def_14 (= b.time__AT0 0.0 )))
(let ((.def_16 (and .def_14 b.event_is_timed__AT0)))
(let ((.def_20 (and .def_16 .def_19)))
(let ((.def_23 (and .def_20 .def_22)))
(let ((.def_35 (and .def_23 .def_34)))
(let ((.def_66 (and .def_35 .def_65)))
(let ((.def_7 (and .def_4 .def_6)))
(let ((.def_10 (and .def_7 .def_9)))
(let ((.def_11 (not .def_10)))
(let ((.def_67 (and .def_11 .def_66)))
(let ((.def_144 (and .def_67 .def_143)))
(let ((.def_298 (and .def_144 .def_297)))
(let ((.def_368 (and .def_298 .def_367)))
.def_368)))))))))))))))))))))))))))))))))))))))))))))))))))))))))))))))))))))))))))))))))))))))))))))))))))))))))))))))))))))))))))))))))))))))))))))))))))))))))))))))))))))))))))))))))))))))))))))))))))))))))))))))))))))))))))))))))))))))))))))))))))))))))))))))))))))))))))))))))))))))))))))))))))))))))))))))))))))))))))))))))))))
(check-sat)
(exit)
